etc/upTests/_zothers/mutiMatixMatixTupleComplex3Simpler5/0001.eprime.solution
language ESSENCE' 1.0
$ minion Nodes: 1
$ minion TotalTime: 0.000519
$ Savile Row TotalTime: 0.167
letting pain_tuple1 be [1, 1;int(1,2)]
letting pain_tuple2_tuple1_tuple2 be [[28, 31;int(1,2)], 
[28, 31;int(1,2)];int(1,2)]
letting pain_tuple2_tuple1_tuple1 be [[55, 99;int(1,2)], 
[55, 99;int(1,2)];int(1,2)]
